(set-option :produce-models true)
(define-fun ceil ((x Real)) Int (ite (= (to_int x) x) (to_int x) (+ (to_int x) 1)))
(define-fun min2 ((x Int) (y Int)) Int (ite (< x y) x y))
(define-fun max2 ((x Int) (y Int)) Int (ite (> x y) x y))
(define-fun sqrt ((x Real)) Real (^ x 0.5))

(declare-const x_size0 Int)
(set-info :example-x_size0 8)
(declare-const x_size1 Int)
(set-info :example-x_size1 3)
(declare-const x_size2 Int)
(set-info :example-x_size2 256)
(declare-const x_size3 Int)
(set-info :example-x_size3 256)
(declare-const x_stride0 Int)
(set-info :example-x_stride0 196608)
(declare-const x_stride1 Int)
(set-info :example-x_stride1 65536)
(declare-const x_stride2 Int)
(set-info :example-x_stride2 256)
(declare-const x_stride3 Int)
(set-info :example-x_stride3 1)
(declare-const x_storage_offset Int)
(set-info :example-x_storage_offset 0)
(define-fun ge () Bool (>= x_size0 0))
(assert ge)
(define-fun ge_1 () Bool (>= x_size1 0))
(assert ge_1)
(define-fun ge_2 () Bool (>= x_size2 0))
(assert ge_2)
(define-fun ge_3 () Bool (>= x_size3 0))
(assert ge_3)
(define-fun eq () Bool (= x_size0 0))
(define-fun not_ () Bool (not eq))
(assert not_)
(define-fun sub () Int (- x_size0 1))
(define-fun mul () Int (* x_stride0 sub))
(define-fun add () Int (+ 1 mul))
(define-fun eq_1 () Bool (= x_size1 0))
(define-fun not__1 () Bool (not eq_1))
(assert not__1)
(define-fun sub_1 () Int (- x_size1 1))
(define-fun mul_1 () Int (* x_stride1 sub_1))
(define-fun add_1 () Int (+ add mul_1))
(define-fun eq_2 () Bool (= x_size2 0))
(define-fun not__2 () Bool (not eq_2))
(assert not__2)
(define-fun sub_2 () Int (- x_size2 1))
(define-fun mul_2 () Int (* x_stride2 sub_2))
(define-fun add_2 () Int (+ add_1 mul_2))
(define-fun eq_3 () Bool (= x_size3 0))
(define-fun not__3 () Bool (not eq_3))
(assert not__3)
(define-fun sub_3 () Int (- x_size3 1))
(define-fun mul_3 () Int (* x_stride3 sub_3))
(define-fun add_3 () Int (+ add_2 mul_3))
(define-fun mul_4 () Int (* 4 add_3))
(define-fun mul_5 () Int (* x_size0 x_size1))
(define-fun mul_6 () Int (* mul_5 x_size2))
(define-fun mul_7 () Int (* mul_6 x_size3))
(define-fun eq_4 () Bool (= mul_7 0))
(define-fun not__4 () Bool (not eq_4))
(assert not__4)
(define-fun eq_5 () Bool (= x_size3 1))
(define-fun not__5 () Bool (not eq_5))
(assert not__5)
(define-fun eq_6 () Bool (= x_stride3 1))
(assert eq_6)
(define-fun eq_7 () Bool (= x_size2 1))
(define-fun not__6 () Bool (not eq_7))
(assert not__6)
(define-fun eq_8 () Bool (= x_stride2 x_size3))
(assert eq_8)
(define-fun mul_8 () Int (* x_size3 x_size2))
(define-fun eq_9 () Bool (= x_size1 1))
(define-fun not__7 () Bool (not eq_9))
(assert not__7)
(define-fun eq_10 () Bool (= x_stride1 mul_8))
(assert eq_10)
(define-fun mul_9 () Int (* mul_8 x_size1))
(define-fun eq_11 () Bool (= x_size0 1))
(define-fun not__8 () Bool (not eq_11))
(assert not__8)
(define-fun eq_12 () Bool (= x_stride0 mul_9))
(assert eq_12)
(define-fun mul_10 () Int (* mul_9 x_size0))
(define-fun eq_13 () Bool (= x_stride1 1))
(define-fun not__9 () Bool (not eq_13))
(assert not__9)
(define-fun eq_14 () Bool (= x_stride1 0))
(define-fun not__10 () Bool (not eq_14))
(assert not__10)
(define-fun lt () Bool (< x_stride1 0))
(define-fun not__11 () Bool (not lt))
(assert not__11)
(define-fun gt () Bool (> x_size1 1))
(assert gt)
(define-fun mul_11 () Int (* x_stride1 x_size1))
(define-fun lt_1 () Bool (< x_stride3 mul_11))
(assert lt_1)
(define-fun ge_4 () Bool (>= x_storage_offset 0))
(assert ge_4)
(define-fun add_4 () Int (+ x_storage_offset add_3))
(define-fun mul_12 () Int (* 4 add_4))
(define-fun eq_15 () Bool (= x_size1 3))
(assert eq_15)
(define-fun add_5 () Int (+ x_size2 2))
(define-fun lt_2 () Bool (< add_5 3))
(define-fun not__12 () Bool (not lt_2))
(assert not__12)
(define-fun add_6 () Int (+ x_size3 2))
(define-fun lt_3 () Bool (< add_6 3))
(define-fun not__13 () Bool (not lt_3))
(assert not__13)
(define-fun floordiv () Int (div mul_7 x_size0))
(define-fun gt_1 () Bool (> floordiv 2147483647))
(define-fun not__14 () Bool (not gt_1))
(assert not__14)
(define-fun sub_4 () Int (- add_5 3))
(define-fun floordiv_1 () Int (div sub_4 1))
(define-fun add_7 () Int (+ floordiv_1 1))
(define-fun sub_5 () Int (- add_6 3))
(define-fun floordiv_2 () Int (div sub_5 1))
(define-fun add_8 () Int (+ floordiv_2 1))
(define-fun mul_13 () Int (* 32 add_7))
(define-fun mul_14 () Int (* mul_13 add_8))
(define-fun gt_2 () Bool (> mul_14 2147483647))
(define-fun not__15 () Bool (not gt_2))
(assert not__15)
(define-fun sub_6 () Int (- add_5 2))
(define-fun sub_7 () Int (- sub_6 1))
(define-fun floordiv_3 () Int (div sub_7 1))
(define-fun add_9 () Int (+ floordiv_3 1))
(define-fun sub_8 () Int (- add_6 2))
(define-fun sub_9 () Int (- sub_8 1))
(define-fun floordiv_4 () Int (div sub_9 1))
(define-fun add_10 () Int (+ floordiv_4 1))
(define-fun ge_5 () Bool (>= add_9 0))
(assert ge_5)
(define-fun ge_6 () Bool (>= add_10 0))
(assert ge_6)
(define-fun eq_16 () Bool (= add_10 0))
(define-fun not__16 () Bool (not eq_16))
(assert not__16)
(define-fun eq_17 () Bool (= add_9 0))
(define-fun not__17 () Bool (not eq_17))
(assert not__17)
(define-fun mul_15 () Int (* add_10 add_9))
(define-fun mul_16 () Int (* mul_15 32))
(define-fun mul_17 () Int (* mul_16 x_size0))
(define-fun mul_18 () Int (* mul_16 sub))
(define-fun add_11 () Int (+ 1 mul_18))
(define-fun mul_19 () Int (* mul_15 31))
(define-fun add_12 () Int (+ add_11 mul_19))
(define-fun sub_10 () Int (- add_9 1))
(define-fun mul_20 () Int (* add_10 sub_10))
(define-fun add_13 () Int (+ add_12 mul_20))
(define-fun sub_11 () Int (- add_10 1))
(define-fun add_14 () Int (+ add_13 sub_11))
(define-fun mul_21 () Int (* 4 add_14))
(define-fun mul_22 () Int (* x_size0 32))
(define-fun mul_23 () Int (* mul_22 add_9))
(define-fun mul_24 () Int (* mul_23 add_10))
(define-fun eq_18 () Bool (= mul_24 0))
(define-fun not__18 () Bool (not eq_18))
(assert not__18)
(define-fun eq_19 () Bool (= add_10 1))
(define-fun not__19 () Bool (not eq_19))
(assert not__19)
(define-fun eq_20 () Bool (= add_9 1))
(define-fun not__20 () Bool (not eq_20))
(assert not__20)
(define-fun eq_21 () Bool (= add_10 add_10))
(assert eq_21)
(define-fun eq_22 () Bool (= mul_15 mul_15))
(assert eq_22)
(define-fun eq_23 () Bool (= mul_16 mul_16))
(assert eq_23)
(define-fun eq_24 () Bool (= mul_15 1))
(define-fun not__21 () Bool (not eq_24))
(assert not__21)
(define-fun eq_25 () Bool (= mul_15 0))
(define-fun not__22 () Bool (not eq_25))
(assert not__22)
(define-fun lt_4 () Bool (< mul_15 0))
(define-fun not__23 () Bool (not lt_4))
(assert not__23)
(define-fun lt_5 () Bool (< 1 mul_16))
(assert lt_5)
(define-fun gt_3 () Bool (> x_stride1 1))
(assert gt_3)
(declare-const self_stem_0__bn_num_batches_tracked_storage_offset Int)
(set-info :example-self_stem_0__bn_num_batches_tracked_storage_offset 0)
(define-fun ge_7 () Bool (>= self_stem_0__bn_num_batches_tracked_storage_offset 0))
(assert ge_7)
(define-fun add_15 () Int (+ self_stem_0__bn_num_batches_tracked_storage_offset 1))
(define-fun mul_25 () Int (* 8 add_15))
(declare-const self_stem_0__bn_running_mean_size0 Int)
(set-info :example-self_stem_0__bn_running_mean_size0 32)
(declare-const self_stem_0__bn_running_mean_stride0 Int)
(set-info :example-self_stem_0__bn_running_mean_stride0 1)
(declare-const self_stem_0__bn_running_mean_storage_offset Int)
(set-info :example-self_stem_0__bn_running_mean_storage_offset 0)
(define-fun ge_8 () Bool (>= self_stem_0__bn_running_mean_size0 0))
(assert ge_8)
(define-fun eq_26 () Bool (= self_stem_0__bn_running_mean_size0 0))
(define-fun not__24 () Bool (not eq_26))
(assert not__24)
(define-fun sub_12 () Int (- self_stem_0__bn_running_mean_size0 1))
(define-fun mul_26 () Int (* self_stem_0__bn_running_mean_stride0 sub_12))
(define-fun add_16 () Int (+ 1 mul_26))
(define-fun mul_27 () Int (* 4 add_16))
(define-fun eq_27 () Bool (= self_stem_0__bn_running_mean_size0 1))
(define-fun not__25 () Bool (not eq_27))
(assert not__25)
(define-fun eq_28 () Bool (= self_stem_0__bn_running_mean_stride0 1))
(assert eq_28)
(define-fun ge_9 () Bool (>= self_stem_0__bn_running_mean_storage_offset 0))
(assert ge_9)
(define-fun add_17 () Int (+ self_stem_0__bn_running_mean_storage_offset add_16))
(define-fun mul_28 () Int (* 4 add_17))
(declare-const self_stem_0__bn_running_var_size0 Int)
(set-info :example-self_stem_0__bn_running_var_size0 32)
(declare-const self_stem_0__bn_running_var_stride0 Int)
(set-info :example-self_stem_0__bn_running_var_stride0 1)
(declare-const self_stem_0__bn_running_var_storage_offset Int)
(set-info :example-self_stem_0__bn_running_var_storage_offset 0)
(define-fun ge_10 () Bool (>= self_stem_0__bn_running_var_size0 0))
(assert ge_10)
(define-fun eq_29 () Bool (= self_stem_0__bn_running_var_size0 0))
(define-fun not__26 () Bool (not eq_29))
(assert not__26)
(define-fun sub_13 () Int (- self_stem_0__bn_running_var_size0 1))
(define-fun mul_29 () Int (* self_stem_0__bn_running_var_stride0 sub_13))
(define-fun add_18 () Int (+ 1 mul_29))
(define-fun mul_30 () Int (* 4 add_18))
(define-fun eq_30 () Bool (= self_stem_0__bn_running_var_size0 1))
(define-fun not__27 () Bool (not eq_30))
(assert not__27)
(define-fun eq_31 () Bool (= self_stem_0__bn_running_var_stride0 1))
(assert eq_31)
(define-fun ge_11 () Bool (>= self_stem_0__bn_running_var_storage_offset 0))
(assert ge_11)
(define-fun add_19 () Int (+ self_stem_0__bn_running_var_storage_offset add_18))
(define-fun mul_31 () Int (* 4 add_19))
(define-fun mul_32 () Int (* x_size0 add_9))
(define-fun mul_33 () Int (* mul_32 add_10))
(define-fun eq_32 () Bool (= mul_33 1))
(define-fun not__28 () Bool (not eq_32))
(assert not__28)
(define-fun eq_33 () Bool (= self_stem_0__bn_running_mean_size0 32))
(assert eq_33)
(define-fun eq_34 () Bool (= self_stem_0__bn_running_var_size0 32))
(assert eq_34)
(define-fun le () Bool (<= x_size0 880801))
(assert le)
(define-fun lt_6 () Bool (< mul_24 2147483647))
(assert lt_6)
(define-fun sym_float () Real (to_real mul_33))
(define-fun lt_7 () Bool (< add_10 0))
(define-fun not__29 () Bool (not lt_7))
(assert not__29)
(define-fun lt_8 () Bool (< add_9 0))
(define-fun not__30 () Bool (not lt_8))
(assert not__30)
(define-fun lt_9 () Bool (< x_size0 0))
(define-fun not__31 () Bool (not lt_9))
(assert not__31)
(define-fun eq_35 () Bool (= x_size0 x_size0))
(assert eq_35)
(define-fun eq_36 () Bool (= add_9 add_9))
(assert eq_36)
(define-fun eq_37 () Bool (= x_size0 -1))
(define-fun not__32 () Bool (not eq_37))
(assert not__32)
(define-fun eq_38 () Bool (= add_9 -1))
(define-fun not__33 () Bool (not eq_38))
(assert not__33)
(define-fun eq_39 () Bool (= add_10 -1))
(define-fun not__34 () Bool (not eq_39))
(assert not__34)
(define-fun lt_10 () Bool (< x_size0 2))
(define-fun not__35 () Bool (not lt_10))
(assert not__35)
(define-fun lt_11 () Bool (< add_9 2))
(define-fun not__36 () Bool (not lt_11))
(assert not__36)
(define-fun lt_12 () Bool (< add_10 2))
(define-fun not__37 () Bool (not lt_12))
(assert not__37)
(define-fun gt_4 () Bool (> add_10 1))
(assert gt_4)
(define-fun lt_13 () Bool (< add_10 mul_15))
(assert lt_13)
(define-fun eq_40 () Bool (= mul_16 0))
(define-fun not__38 () Bool (not eq_40))
(assert not__38)
(define-fun lt_14 () Bool (< mul_15 mul_16))
(assert lt_14)
(define-fun lt_15 () Bool (< self_stem_0__bn_running_mean_size0 0))
(define-fun not__39 () Bool (not lt_15))
(assert not__39)
(define-fun eq_41 () Bool (= self_stem_0__bn_running_mean_size0 self_stem_0__bn_running_mean_size0))
(assert eq_41)
(define-fun add_20 () Int (+ 1 sub_12))
(define-fun mul_34 () Int (* 4 add_20))
(define-fun truediv () Real (/ mul_24 32))
(define-fun sub_14 () Real (- truediv 1))
(define-fun truediv_1 () Real (/ truediv sub_14))
(define-fun lt_16 () Bool (< self_stem_0__bn_running_var_size0 0))
(define-fun not__40 () Bool (not lt_16))
(assert not__40)
(define-fun eq_42 () Bool (= self_stem_0__bn_running_var_size0 self_stem_0__bn_running_var_size0))
(assert eq_42)
(define-fun add_21 () Int (+ 1 sub_13))
(define-fun mul_35 () Int (* 4 add_21))
(define-fun eq_43 () Bool (= mul_24 mul_24))
(assert eq_43)
(define-fun add_22 () Int (+ add_9 2))
(define-fun lt_17 () Bool (< add_22 3))
(define-fun not__41 () Bool (not lt_17))
(assert not__41)
(define-fun add_23 () Int (+ add_10 2))
(define-fun lt_18 () Bool (< add_23 3))
(define-fun not__42 () Bool (not lt_18))
(assert not__42)
(define-fun floordiv_5 () Int (div mul_24 x_size0))
(define-fun gt_5 () Bool (> floordiv_5 2147483647))
(define-fun not__43 () Bool (not gt_5))
(assert not__43)
(define-fun sub_15 () Int (- add_22 3))
(define-fun floordiv_6 () Int (div sub_15 2))
(define-fun add_24 () Int (+ floordiv_6 1))
(define-fun sub_16 () Int (- add_23 3))
(define-fun floordiv_7 () Int (div sub_16 2))
(define-fun add_25 () Int (+ floordiv_7 1))
(define-fun mul_36 () Int (* 64 add_24))
(define-fun mul_37 () Int (* mul_36 add_25))
(define-fun gt_6 () Bool (> mul_37 2147483647))
(define-fun not__44 () Bool (not gt_6))
(assert not__44)
(define-fun sub_17 () Int (- add_22 2))
(define-fun sub_18 () Int (- sub_17 1))
(define-fun floordiv_8 () Int (div sub_18 2))
(define-fun add_26 () Int (+ floordiv_8 1))
(define-fun sub_19 () Int (- add_23 2))
(define-fun sub_20 () Int (- sub_19 1))
(define-fun floordiv_9 () Int (div sub_20 2))
(define-fun add_27 () Int (+ floordiv_9 1))
(define-fun ge_12 () Bool (>= add_26 0))
(assert ge_12)
(define-fun ge_13 () Bool (>= add_27 0))
(assert ge_13)
(define-fun eq_44 () Bool (= add_27 0))
(define-fun not__45 () Bool (not eq_44))
(assert not__45)
(define-fun eq_45 () Bool (= add_26 0))
(define-fun not__46 () Bool (not eq_45))
(assert not__46)
(define-fun mul_38 () Int (* add_27 add_26))
(define-fun mul_39 () Int (* mul_38 64))
(define-fun mul_40 () Int (* mul_39 x_size0))
(define-fun mul_41 () Int (* mul_39 sub))
(define-fun add_28 () Int (+ 1 mul_41))
(define-fun mul_42 () Int (* mul_38 63))
(define-fun add_29 () Int (+ add_28 mul_42))
(define-fun sub_21 () Int (- add_26 1))
(define-fun mul_43 () Int (* add_27 sub_21))
(define-fun add_30 () Int (+ add_29 mul_43))
(define-fun sub_22 () Int (- add_27 1))
(define-fun add_31 () Int (+ add_30 sub_22))
(define-fun mul_44 () Int (* 4 add_31))
(define-fun mul_45 () Int (* x_size0 64))
(define-fun mul_46 () Int (* mul_45 add_26))
(define-fun mul_47 () Int (* mul_46 add_27))
(define-fun eq_46 () Bool (= mul_47 0))
(define-fun not__47 () Bool (not eq_46))
(assert not__47)
(define-fun eq_47 () Bool (= add_27 1))
(define-fun not__48 () Bool (not eq_47))
(assert not__48)
(define-fun eq_48 () Bool (= add_26 1))
(define-fun not__49 () Bool (not eq_48))
(assert not__49)
(define-fun eq_49 () Bool (= add_27 add_27))
(assert eq_49)
(define-fun eq_50 () Bool (= mul_38 mul_38))
(assert eq_50)
(define-fun eq_51 () Bool (= mul_39 mul_39))
(assert eq_51)
(define-fun eq_52 () Bool (= mul_38 1))
(define-fun not__50 () Bool (not eq_52))
(assert not__50)
(define-fun eq_53 () Bool (= mul_38 0))
(define-fun not__51 () Bool (not eq_53))
(assert not__51)
(define-fun lt_19 () Bool (< mul_38 0))
(define-fun not__52 () Bool (not lt_19))
(assert not__52)
(define-fun lt_20 () Bool (< 1 mul_39))
(assert lt_20)
(define-fun gt_7 () Bool (> mul_15 1))
(assert gt_7)
(define-fun gt_8 () Bool (> mul_16 1))
(assert gt_8)
(declare-const self_stages_0__conv_down_bn_num_batches_tracked_storage_offset Int)
(set-info :example-self_stages_0__conv_down_bn_num_batches_tracked_storage_offset 0)
(define-fun ge_14 () Bool (>= self_stages_0__conv_down_bn_num_batches_tracked_storage_offset 0))
(assert ge_14)
(define-fun add_32 () Int (+ self_stages_0__conv_down_bn_num_batches_tracked_storage_offset 1))
(define-fun mul_48 () Int (* 8 add_32))
(declare-const self_stages_0__conv_down_bn_running_mean_size0 Int)
(set-info :example-self_stages_0__conv_down_bn_running_mean_size0 64)
(declare-const self_stages_0__conv_down_bn_running_mean_stride0 Int)
(set-info :example-self_stages_0__conv_down_bn_running_mean_stride0 1)
(declare-const self_stages_0__conv_down_bn_running_mean_storage_offset Int)
(set-info :example-self_stages_0__conv_down_bn_running_mean_storage_offset 0)
(define-fun ge_15 () Bool (>= self_stages_0__conv_down_bn_running_mean_size0 0))
(assert ge_15)
(define-fun eq_54 () Bool (= self_stages_0__conv_down_bn_running_mean_size0 0))
(define-fun not__53 () Bool (not eq_54))
(assert not__53)
(define-fun sub_23 () Int (- self_stages_0__conv_down_bn_running_mean_size0 1))
(define-fun mul_49 () Int (* self_stages_0__conv_down_bn_running_mean_stride0 sub_23))
(define-fun add_33 () Int (+ 1 mul_49))
(define-fun mul_50 () Int (* 4 add_33))
(define-fun eq_55 () Bool (= self_stages_0__conv_down_bn_running_mean_size0 1))
(define-fun not__54 () Bool (not eq_55))
(assert not__54)
(define-fun eq_56 () Bool (= self_stages_0__conv_down_bn_running_mean_stride0 1))
(assert eq_56)
(define-fun ge_16 () Bool (>= self_stages_0__conv_down_bn_running_mean_storage_offset 0))
(assert ge_16)
(define-fun add_34 () Int (+ self_stages_0__conv_down_bn_running_mean_storage_offset add_33))
(define-fun mul_51 () Int (* 4 add_34))
(declare-const self_stages_0__conv_down_bn_running_var_size0 Int)
(set-info :example-self_stages_0__conv_down_bn_running_var_size0 64)
(declare-const self_stages_0__conv_down_bn_running_var_stride0 Int)
(set-info :example-self_stages_0__conv_down_bn_running_var_stride0 1)
(declare-const self_stages_0__conv_down_bn_running_var_storage_offset Int)
(set-info :example-self_stages_0__conv_down_bn_running_var_storage_offset 0)
(define-fun ge_17 () Bool (>= self_stages_0__conv_down_bn_running_var_size0 0))
(assert ge_17)
(define-fun eq_57 () Bool (= self_stages_0__conv_down_bn_running_var_size0 0))
(define-fun not__55 () Bool (not eq_57))
(assert not__55)
(define-fun sub_24 () Int (- self_stages_0__conv_down_bn_running_var_size0 1))
(define-fun mul_52 () Int (* self_stages_0__conv_down_bn_running_var_stride0 sub_24))
(define-fun add_35 () Int (+ 1 mul_52))
(define-fun mul_53 () Int (* 4 add_35))
(define-fun eq_58 () Bool (= self_stages_0__conv_down_bn_running_var_size0 1))
(define-fun not__56 () Bool (not eq_58))
(assert not__56)
(define-fun eq_59 () Bool (= self_stages_0__conv_down_bn_running_var_stride0 1))
(assert eq_59)
(define-fun ge_18 () Bool (>= self_stages_0__conv_down_bn_running_var_storage_offset 0))
(assert ge_18)
(define-fun add_36 () Int (+ self_stages_0__conv_down_bn_running_var_storage_offset add_35))
(define-fun mul_54 () Int (* 4 add_36))
(define-fun mul_55 () Int (* x_size0 add_26))
(define-fun mul_56 () Int (* mul_55 add_27))
(define-fun eq_60 () Bool (= mul_56 1))
(define-fun not__57 () Bool (not eq_60))
(assert not__57)
(define-fun eq_61 () Bool (= self_stages_0__conv_down_bn_running_mean_size0 64))
(assert eq_61)
(define-fun eq_62 () Bool (= self_stages_0__conv_down_bn_running_var_size0 64))
(assert eq_62)
(define-fun lt_21 () Bool (< mul_47 2147483647))
(assert lt_21)
(define-fun sym_float_1 () Real (to_real mul_56))
(define-fun lt_22 () Bool (< add_27 0))
(define-fun not__58 () Bool (not lt_22))
(assert not__58)
(define-fun lt_23 () Bool (< add_26 0))
(define-fun not__59 () Bool (not lt_23))
(assert not__59)
(define-fun eq_63 () Bool (= add_26 add_26))
(assert eq_63)
(define-fun eq_64 () Bool (= add_26 -1))
(define-fun not__60 () Bool (not eq_64))
(assert not__60)
(define-fun eq_65 () Bool (= add_27 -1))
(define-fun not__61 () Bool (not eq_65))
(assert not__61)
(define-fun lt_24 () Bool (< add_26 2))
(define-fun not__62 () Bool (not lt_24))
(assert not__62)
(define-fun lt_25 () Bool (< add_27 2))
(define-fun not__63 () Bool (not lt_25))
(assert not__63)
(define-fun gt_9 () Bool (> add_27 1))
(assert gt_9)
(define-fun lt_26 () Bool (< add_27 mul_38))
(assert lt_26)
(define-fun eq_66 () Bool (= mul_39 0))
(define-fun not__64 () Bool (not eq_66))
(assert not__64)
(define-fun lt_27 () Bool (< mul_38 mul_39))
(assert lt_27)
(define-fun lt_28 () Bool (< self_stages_0__conv_down_bn_running_mean_size0 0))
(define-fun not__65 () Bool (not lt_28))
(assert not__65)
(define-fun eq_67 () Bool (= self_stages_0__conv_down_bn_running_mean_size0 self_stages_0__conv_down_bn_running_mean_size0))
(assert eq_67)
(define-fun add_37 () Int (+ 1 sub_23))
(define-fun mul_57 () Int (* 4 add_37))
(define-fun truediv_2 () Real (/ mul_47 64))
(define-fun sub_25 () Real (- truediv_2 1))
(define-fun truediv_3 () Real (/ truediv_2 sub_25))
(define-fun lt_29 () Bool (< self_stages_0__conv_down_bn_running_var_size0 0))
(define-fun not__66 () Bool (not lt_29))
(assert not__66)
(define-fun eq_68 () Bool (= self_stages_0__conv_down_bn_running_var_size0 self_stages_0__conv_down_bn_running_var_size0))
(assert eq_68)
(define-fun add_38 () Int (+ 1 sub_24))
(define-fun mul_58 () Int (* 4 add_38))
(define-fun eq_69 () Bool (= mul_47 mul_47))
(assert eq_69)
(define-fun lt_30 () Bool (< add_26 1))
(define-fun not__67 () Bool (not lt_30))
(assert not__67)
(define-fun lt_31 () Bool (< add_27 1))
(define-fun not__68 () Bool (not lt_31))
(assert not__68)
(define-fun floordiv_10 () Int (div mul_47 x_size0))
(define-fun gt_10 () Bool (> floordiv_10 2147483647))
(define-fun not__69 () Bool (not gt_10))
(assert not__69)
(define-fun floordiv_11 () Int (div sub_21 1))
(define-fun add_39 () Int (+ floordiv_11 1))
(define-fun floordiv_12 () Int (div sub_22 1))
(define-fun add_40 () Int (+ floordiv_12 1))
(define-fun mul_59 () Int (* 128 add_39))
(define-fun mul_60 () Int (* mul_59 add_40))
(define-fun gt_11 () Bool (> mul_60 2147483647))
(define-fun not__70 () Bool (not gt_11))
(assert not__70)
(define-fun sub_26 () Int (- add_26 0))
(define-fun sub_27 () Int (- sub_26 1))
(define-fun floordiv_13 () Int (div sub_27 1))
(define-fun add_41 () Int (+ floordiv_13 1))
(define-fun sub_28 () Int (- add_27 0))
(define-fun sub_29 () Int (- sub_28 1))
(define-fun floordiv_14 () Int (div sub_29 1))
(define-fun add_42 () Int (+ floordiv_14 1))
(define-fun ge_19 () Bool (>= add_41 0))
(assert ge_19)
(define-fun ge_20 () Bool (>= add_42 0))
(assert ge_20)
(define-fun eq_70 () Bool (= add_42 0))
(define-fun not__71 () Bool (not eq_70))
(assert not__71)
(define-fun eq_71 () Bool (= add_41 0))
(define-fun not__72 () Bool (not eq_71))
(assert not__72)
(define-fun mul_61 () Int (* add_42 add_41))
(define-fun mul_62 () Int (* mul_61 128))
(define-fun mul_63 () Int (* mul_62 x_size0))
(define-fun mul_64 () Int (* mul_62 sub))
(define-fun add_43 () Int (+ 1 mul_64))
(define-fun mul_65 () Int (* mul_61 127))
(define-fun add_44 () Int (+ add_43 mul_65))
(define-fun sub_30 () Int (- add_41 1))
(define-fun mul_66 () Int (* add_42 sub_30))
(define-fun add_45 () Int (+ add_44 mul_66))
(define-fun sub_31 () Int (- add_42 1))
(define-fun add_46 () Int (+ add_45 sub_31))
(define-fun mul_67 () Int (* 4 add_46))
(define-fun mul_68 () Int (* x_size0 128))
(define-fun mul_69 () Int (* mul_68 add_41))
(define-fun mul_70 () Int (* mul_69 add_42))
(define-fun eq_72 () Bool (= mul_70 0))
(define-fun not__73 () Bool (not eq_72))
(assert not__73)
(define-fun eq_73 () Bool (= add_42 1))
(define-fun not__74 () Bool (not eq_73))
(assert not__74)
(define-fun eq_74 () Bool (= add_41 1))
(define-fun not__75 () Bool (not eq_74))
(assert not__75)
(define-fun eq_75 () Bool (= add_42 add_42))
(assert eq_75)
(define-fun eq_76 () Bool (= mul_61 mul_61))
(assert eq_76)
(define-fun eq_77 () Bool (= mul_62 mul_62))
(assert eq_77)
(define-fun eq_78 () Bool (= mul_61 1))
(define-fun not__76 () Bool (not eq_78))
(assert not__76)
(define-fun eq_79 () Bool (= mul_61 0))
(define-fun not__77 () Bool (not eq_79))
(assert not__77)
(define-fun lt_32 () Bool (< mul_61 0))
(define-fun not__78 () Bool (not lt_32))
(assert not__78)
(define-fun lt_33 () Bool (< 1 mul_62))
(assert lt_33)
(define-fun gt_12 () Bool (> mul_38 1))
(assert gt_12)
(define-fun gt_13 () Bool (> mul_39 1))
(assert gt_13)
(declare-const self_stages_0__conv_exp_bn_num_batches_tracked_storage_offset Int)
(set-info :example-self_stages_0__conv_exp_bn_num_batches_tracked_storage_offset 0)
(define-fun ge_21 () Bool (>= self_stages_0__conv_exp_bn_num_batches_tracked_storage_offset 0))
(assert ge_21)
(define-fun add_47 () Int (+ self_stages_0__conv_exp_bn_num_batches_tracked_storage_offset 1))
(define-fun mul_71 () Int (* 8 add_47))
(declare-const self_stages_0__conv_exp_bn_running_mean_size0 Int)
(set-info :example-self_stages_0__conv_exp_bn_running_mean_size0 128)
(declare-const self_stages_0__conv_exp_bn_running_mean_stride0 Int)
(set-info :example-self_stages_0__conv_exp_bn_running_mean_stride0 1)
(declare-const self_stages_0__conv_exp_bn_running_mean_storage_offset Int)
(set-info :example-self_stages_0__conv_exp_bn_running_mean_storage_offset 0)
(define-fun ge_22 () Bool (>= self_stages_0__conv_exp_bn_running_mean_size0 0))
(assert ge_22)
(define-fun eq_80 () Bool (= self_stages_0__conv_exp_bn_running_mean_size0 0))
(define-fun not__79 () Bool (not eq_80))
(assert not__79)
(define-fun sub_32 () Int (- self_stages_0__conv_exp_bn_running_mean_size0 1))
(define-fun mul_72 () Int (* self_stages_0__conv_exp_bn_running_mean_stride0 sub_32))
(define-fun add_48 () Int (+ 1 mul_72))
(define-fun mul_73 () Int (* 4 add_48))
(define-fun eq_81 () Bool (= self_stages_0__conv_exp_bn_running_mean_size0 1))
(define-fun not__80 () Bool (not eq_81))
(assert not__80)
(define-fun eq_82 () Bool (= self_stages_0__conv_exp_bn_running_mean_stride0 1))
(assert eq_82)
(define-fun ge_23 () Bool (>= self_stages_0__conv_exp_bn_running_mean_storage_offset 0))
(assert ge_23)
(define-fun add_49 () Int (+ self_stages_0__conv_exp_bn_running_mean_storage_offset add_48))
(define-fun mul_74 () Int (* 4 add_49))
(declare-const self_stages_0__conv_exp_bn_running_var_size0 Int)
(set-info :example-self_stages_0__conv_exp_bn_running_var_size0 128)
(declare-const self_stages_0__conv_exp_bn_running_var_stride0 Int)
(set-info :example-self_stages_0__conv_exp_bn_running_var_stride0 1)
(declare-const self_stages_0__conv_exp_bn_running_var_storage_offset Int)
(set-info :example-self_stages_0__conv_exp_bn_running_var_storage_offset 0)
(define-fun ge_24 () Bool (>= self_stages_0__conv_exp_bn_running_var_size0 0))
(assert ge_24)
(define-fun eq_83 () Bool (= self_stages_0__conv_exp_bn_running_var_size0 0))
(define-fun not__81 () Bool (not eq_83))
(assert not__81)
(define-fun sub_33 () Int (- self_stages_0__conv_exp_bn_running_var_size0 1))
(define-fun mul_75 () Int (* self_stages_0__conv_exp_bn_running_var_stride0 sub_33))
(define-fun add_50 () Int (+ 1 mul_75))
(define-fun mul_76 () Int (* 4 add_50))
(define-fun eq_84 () Bool (= self_stages_0__conv_exp_bn_running_var_size0 1))
(define-fun not__82 () Bool (not eq_84))
(assert not__82)
(define-fun eq_85 () Bool (= self_stages_0__conv_exp_bn_running_var_stride0 1))
(assert eq_85)
(define-fun ge_25 () Bool (>= self_stages_0__conv_exp_bn_running_var_storage_offset 0))
(assert ge_25)
(define-fun add_51 () Int (+ self_stages_0__conv_exp_bn_running_var_storage_offset add_50))
(define-fun mul_77 () Int (* 4 add_51))
(define-fun mul_78 () Int (* x_size0 add_41))
(define-fun mul_79 () Int (* mul_78 add_42))
(define-fun eq_86 () Bool (= mul_79 1))
(define-fun not__83 () Bool (not eq_86))
(assert not__83)
(define-fun eq_87 () Bool (= self_stages_0__conv_exp_bn_running_mean_size0 128))
(assert eq_87)
(define-fun eq_88 () Bool (= self_stages_0__conv_exp_bn_running_var_size0 128))
(assert eq_88)
(define-fun lt_34 () Bool (< mul_70 2147483647))
(assert lt_34)
(define-fun sym_float_2 () Real (to_real mul_79))
(define-fun lt_35 () Bool (< add_42 0))
(define-fun not__84 () Bool (not lt_35))
(assert not__84)
(define-fun lt_36 () Bool (< add_41 0))
(define-fun not__85 () Bool (not lt_36))
(assert not__85)
(define-fun eq_89 () Bool (= add_41 add_41))
(assert eq_89)
(define-fun eq_90 () Bool (= add_41 -1))
(define-fun not__86 () Bool (not eq_90))
(assert not__86)
(define-fun eq_91 () Bool (= add_42 -1))
(define-fun not__87 () Bool (not eq_91))
(assert not__87)
(define-fun lt_37 () Bool (< add_41 2))
(define-fun not__88 () Bool (not lt_37))
(assert not__88)
(define-fun lt_38 () Bool (< add_42 2))
(define-fun not__89 () Bool (not lt_38))
(assert not__89)
(define-fun gt_14 () Bool (> add_42 1))
(assert gt_14)
(define-fun lt_39 () Bool (< add_42 mul_61))
(assert lt_39)
(define-fun eq_92 () Bool (= mul_62 0))
(define-fun not__90 () Bool (not eq_92))
(assert not__90)
(define-fun lt_40 () Bool (< mul_61 mul_62))
(assert lt_40)
(define-fun lt_41 () Bool (< self_stages_0__conv_exp_bn_running_mean_size0 0))
(define-fun not__91 () Bool (not lt_41))
(assert not__91)
(define-fun eq_93 () Bool (= self_stages_0__conv_exp_bn_running_mean_size0 self_stages_0__conv_exp_bn_running_mean_size0))
(assert eq_93)
(define-fun add_52 () Int (+ 1 sub_32))
(define-fun mul_80 () Int (* 4 add_52))
(define-fun truediv_4 () Real (/ mul_70 128))
(define-fun sub_34 () Real (- truediv_4 1))
(define-fun truediv_5 () Real (/ truediv_4 sub_34))
(define-fun lt_42 () Bool (< self_stages_0__conv_exp_bn_running_var_size0 0))
(define-fun not__92 () Bool (not lt_42))
(assert not__92)
(define-fun eq_94 () Bool (= self_stages_0__conv_exp_bn_running_var_size0 self_stages_0__conv_exp_bn_running_var_size0))
(assert eq_94)
(define-fun add_53 () Int (+ 1 sub_33))
(define-fun mul_81 () Int (* 4 add_53))
(define-fun eq_95 () Bool (= mul_70 mul_70))
(assert eq_95)
(define-fun eq_96 () Bool (= mul_12 0))
(define-fun not__93 () Bool (not eq_96))
(assert not__93)
(define-fun eq_97 () Bool (= mul_25 0))
(define-fun not__94 () Bool (not eq_97))
(assert not__94)
(define-fun eq_98 () Bool (= mul_28 0))
(define-fun not__95 () Bool (not eq_98))
(assert not__95)
(define-fun eq_99 () Bool (= mul_31 0))
(define-fun not__96 () Bool (not eq_99))
(assert not__96)
(define-fun eq_100 () Bool (= mul_21 0))
(define-fun not__97 () Bool (not eq_100))
(assert not__97)
(define-fun output0_size0 () Int 32)
(define-fun output0_stride0 () Int 1)
(define-fun output0_storage_offset () Int 0)
(define-fun output1_size0 () Int 32)
(define-fun output1_stride0 () Int 1)
(define-fun output1_storage_offset () Int 0)
(define-fun output2_size0 () Int x_size0)
(define-fun output2_size1 () Int 32)
(define-fun output2_size2 () Int add_9)
(define-fun output2_size3 () Int add_10)
(define-fun output2_stride0 () Int mul_16)
(define-fun output2_stride1 () Int mul_15)
(define-fun output2_stride2 () Int add_10)
(define-fun output2_stride3 () Int 1)
(define-fun output2_storage_offset () Int 0)
(define-fun output3_storage_offset () Int 0)
(check-sat)
(get-value (x_size0 x_size1 x_size2 x_size3 x_stride0 x_stride1 x_stride2 x_stride3 x_storage_offset self_stem_0__bn_num_batches_tracked_storage_offset self_stem_0__bn_running_mean_size0 self_stem_0__bn_running_mean_stride0 self_stem_0__bn_running_mean_storage_offset self_stem_0__bn_running_var_size0 self_stem_0__bn_running_var_stride0 self_stem_0__bn_running_var_storage_offset self_stages_0__conv_down_bn_num_batches_tracked_storage_offset self_stages_0__conv_down_bn_running_mean_size0 self_stages_0__conv_down_bn_running_mean_stride0 self_stages_0__conv_down_bn_running_mean_storage_offset self_stages_0__conv_down_bn_running_var_size0 self_stages_0__conv_down_bn_running_var_stride0 self_stages_0__conv_down_bn_running_var_storage_offset self_stages_0__conv_exp_bn_num_batches_tracked_storage_offset self_stages_0__conv_exp_bn_running_mean_size0 self_stages_0__conv_exp_bn_running_mean_stride0 self_stages_0__conv_exp_bn_running_mean_storage_offset self_stages_0__conv_exp_bn_running_var_size0 self_stages_0__conv_exp_bn_running_var_stride0 self_stages_0__conv_exp_bn_running_var_storage_offset output0_size0 output0_stride0 output0_storage_offset output1_size0 output1_stride0 output1_storage_offset output2_size0 output2_size1 output2_size2 output2_size3 output2_stride0 output2_stride1 output2_stride2 output2_stride3 output2_storage_offset output3_storage_offset))
